703396
703396
699406
699406
692618
692618
692618
692618
692618
692618
692618
685592
685592
685592
685592
685592
685592
685592
685592
685592
685592
683200
679925
675006
675006
672945
671262
671262
670024
670024
666077
666077
666077
666077
666077
666077
665876
661974
661974
660591
659665
659665
659665
659665
659665
659665
659665
659665
659665
659665
659665
659665
655619
655619
655619
655619
655619
655619
655619
655619
655619
655619
655619
655453
655453
655453
655453
652875
652875
652875
652875
652875
652875
648854
648854
647110
647110
647110
647110
647110
647110
647110
647110
647110
647110
647110
647110
645845
643284
643284
643284
643284
643284
643284
638226
638226
638226
638226
638226
638226
